1599552
50,38,61,36,52,43,9,17,56,32,51,13,21,30,27,49,35,58,15,62,3,19,46,0,23,60,20,2,41,11,31,55,39,4,59,28,24,29,40,63,66,37,6,42,45,33,54,25,65,10,5,22,48,18,53,12,64,47,1,44,26,16,8,57,14,7,67,34
